(declare-const a Int)
(declare-const b Int)
(declare-const c Int)
(assert (> a 0))
(assert (> b 0))
(assert (= (* c c) (+ (* a a) (* b b))))
(check-sat)
(declare-const a Int)
(declare-const b Int)
(assert (> a 0))
(assert (> b 0))
(assert (exists ((c Int)) (= (* c c) (+ (* a a) (* b b)))))
(check-sat)
